12 24
1 7 45
1 8 361
1 12 128
2 3 295
2 8 538
2 11 369
3 4 408
3 11 164
4 5 322
4 6 91
4 8 153
4 11 244
5 6 231
5 9 328
5 10 142
6 8 235
6 10 360
6 11 296
7 8 404
7 9 435
7 12 150
8 11 303
8 12 387
9 10 249
